; start Z3 query
(declare-fun addr__map () (_ BitVec 64))
(declare-fun is_unique (Int) Int)
(declare-fun tpot_bv2int ((_ BitVec 64)) Int)
(declare-fun addr__map->items () (_ BitVec 64))
(declare-fun syt_initval__map_init_bitvec () (_ BitVec 64))
(declare-fun obj_at__map0 () (Array Int (_ BitVec 8)))
(declare-fun i_test1 () (_ BitVec 64))
(declare-fun |NOF_PH_&key_i(1)| () (_ BitVec 2))
(declare-fun dummy_arg_idx () (_ BitVec 64))
(declare-fun obj_at__map->items1 () (Array Int (_ BitVec 8)))
(declare-fun dummy_arg_field () (_ BitVec 64))
(declare-fun forall_elem_prop_active_2 () (_ BitVec 2))
(declare-fun addr__key_set_p () (_ BitVec 64))
(declare-fun syt_fresh_bv__key_set_p.2 () (_ BitVec 64))
(declare-fun uninterp__hash64 ((_ BitVec 64)) (_ BitVec 32))
(declare-fun obj_at__key_set_p2 () (Array Int (_ BitVec 8)))
(declare-fun base__fzone_at__&key_i_inst_1 () (_ BitVec 64))
(declare-fun fzone_at__&key_i_inst_13 () (Array Int (_ BitVec 8)))
(declare-fun addr__key_get_p () (_ BitVec 64))
(declare-fun syt_fresh_bv__key_get_p.3 () (_ BitVec 64))
(declare-fun obj_at__key_get_p5 () (Array Int (_ BitVec 8)))
(declare-fun syt_fresh_bv__value.1 () (_ BitVec 64))
(declare-fun i_dist_2 () (_ BitVec 64))
(declare-fun j_dist_2 () (_ BitVec 64))

(assert (let ((a!1 (concat (select obj_at__map0 19)
                   (concat (select obj_at__map0 18)
                           (concat (select obj_at__map0 17)
                                   (select obj_at__map0 16))))))
(let ((a!2 (concat (select obj_at__map0 22)
                   (concat (select obj_at__map0 21)
                           (concat (select obj_at__map0 20) a!1)))))
  (= 2 (tpot_bv2int (concat (select obj_at__map0 23) a!2))))))

(assert (= syt_fresh_bv__key_set_p.2 addr__key_set_p))

(assert (= 64 (is_unique (tpot_bv2int base__fzone_at__&key_i_inst_1))))

(assert (let ((a!1 (concat (select obj_at__key_set_p2 3)
                   (concat (select obj_at__key_set_p2 2)
                           (concat (select obj_at__key_set_p2 1)
                                   (select obj_at__key_set_p2 0))))))
(let ((a!2 (concat (select obj_at__key_set_p2 6)
                   (concat (select obj_at__key_set_p2 5)
                           (concat (select obj_at__key_set_p2 4) a!1)))))
(let ((a!3 (concat #x00000000
                   (uninterp__hash64 (concat (select obj_at__key_set_p2 7) a!2)))))
(let ((a!4 (* 32 (rem (rem (tpot_bv2int a!3) 2) 2))))
(let ((a!5 (+ (- (+ (tpot_bv2int addr__map->items) a!4)
                 (tpot_bv2int addr__map->items))
              7))
      (a!6 (+ (- (+ (tpot_bv2int addr__map->items) a!4)
                 (tpot_bv2int addr__map->items))
              6))
      (a!7 (+ (- (+ (tpot_bv2int addr__map->items) a!4)
                 (tpot_bv2int addr__map->items))
              5))
      (a!8 (+ (- (+ (tpot_bv2int addr__map->items) a!4)
                 (tpot_bv2int addr__map->items))
              4))
      (a!9 (+ (- (+ (tpot_bv2int addr__map->items) a!4)
                 (tpot_bv2int addr__map->items))
              3))
      (a!10 (+ (- (+ (tpot_bv2int addr__map->items) a!4)
                  (tpot_bv2int addr__map->items))
               2))
      (a!11 (+ (- (+ (tpot_bv2int addr__map->items) a!4)
                  (tpot_bv2int addr__map->items))
               1))
      (a!12 (+ (- (+ (tpot_bv2int addr__map->items) a!4)
                  (tpot_bv2int addr__map->items))
               0)))
(let ((a!13 (concat (select obj_at__map->items1 a!9)
                    (concat (select obj_at__map->items1 a!10)
                            (concat (select obj_at__map->items1 a!11)
                                    (select obj_at__map->items1 a!12))))))
(let ((a!14 (concat (select obj_at__map->items1 a!6)
                    (concat (select obj_at__map->items1 a!7)
                            (concat (select obj_at__map->items1 a!8) a!13)))))
  (= (concat (select obj_at__map->items1 a!5) a!14)
     base__fzone_at__&key_i_inst_1)))))))))


  

(assert (let ((a!1 (concat (select obj_at__key_get_p5 3)
                   (concat (select obj_at__key_get_p5 2)
                           (concat (select obj_at__key_get_p5 1)
                                   (select obj_at__key_get_p5 0))))))
(let ((a!2 (concat (select obj_at__key_get_p5 6)
                   (concat (select obj_at__key_get_p5 5)
                           (concat (select obj_at__key_get_p5 4) a!1)))))
(let ((a!3 (concat #x00000000
                   (uninterp__hash64 (concat (select obj_at__key_get_p5 7) a!2)))))
(let ((a!4 (bvslt (bvudiv (bvmul #x0000000000000020
                                 (bvand a!3
                                        #x0000000000000001
                                        #x0000000000000001))
                          #x0000000000000020)
                  #x0000000000000000))
      (a!5 (* 32 (rem (rem (tpot_bv2int a!3) 2) 2)))
      (a!7 (bvule #x0000000000000002
                  (bvudiv (bvmul #x0000000000000020
                                 (bvand a!3
                                        #x0000000000000001
                                        #x0000000000000001))
                          #x0000000000000020))))
(let ((a!6 (and (not a!4) (not (< (div a!5 32) 0))))
      (a!8 (- (+ (tpot_bv2int addr__map->items) (* 32 (div a!5 32)))
              (tpot_bv2int addr__map->items))))
(let ((a!9 (concat (select obj_at__map->items1 (+ 16 a!8 2))
                   (concat (select obj_at__map->items1 (+ 16 a!8 1))
                           (select obj_at__map->items1 (+ 16 a!8 0))))))
(let ((a!10 (concat (select obj_at__map->items1 (+ 16 a!8 4))
                    (concat (select obj_at__map->items1 (+ 16 a!8 3)) a!9))))
(let ((a!11 (concat (select obj_at__map->items1 (+ 16 a!8 6))
                    (concat (select obj_at__map->items1 (+ 16 a!8 5)) a!10))))
(let ((a!12 (bvult (concat (select obj_at__map->items1 (+ 16 a!8 7)) a!11)
                   #x0000000000000002)))
(let ((a!13 (and a!6
                 (not a!7)
                 (not (<= 2 (div a!5 32)))
                 (<= 0 (div a!5 32))
                 a!12)))
  (or (and a!4 (< (div a!5 32) 0))
      (and a!6 a!7 (<= 2 (div a!5 32)) (<= 0 (div a!5 32)))
      a!13))))))))))))





(assert (let ((a!1 (concat (select obj_at__key_set_p2 3)
                   (concat (select obj_at__key_set_p2 2)
                           (concat (select obj_at__key_set_p2 1)
                                   (select obj_at__key_set_p2 0)))))
      (a!4 (concat (select obj_at__map0 19)
                   (concat (select obj_at__map0 18)
                           (concat (select obj_at__map0 17)
                                   (select obj_at__map0 16)))))
      (a!48 (concat (select obj_at__key_get_p5 3)
                    (concat (select obj_at__key_get_p5 2)
                            (concat (select obj_at__key_get_p5 1)
                                    (select obj_at__key_get_p5 0))))))
(let ((a!2 (concat (select obj_at__key_set_p2 6)
                   (concat (select obj_at__key_set_p2 5)
                           (concat (select obj_at__key_set_p2 4) a!1))))
      (a!5 (concat (select obj_at__map0 22)
                   (concat (select obj_at__map0 21)
                           (concat (select obj_at__map0 20) a!4))))
      (a!49 (concat (select obj_at__key_get_p5 6)
                    (concat (select obj_at__key_get_p5 5)
                            (concat (select obj_at__key_get_p5 4) a!48)))))
(let ((a!3 (concat #x00000000
                   (uninterp__hash64 (concat (select obj_at__key_set_p2 7) a!2))))
      (a!39 ((_ extract 7 0)
              (uninterp__hash64 (concat (select obj_at__key_set_p2 7) a!2))))
      (a!41 ((_ extract 15 8)
              (uninterp__hash64 (concat (select obj_at__key_set_p2 7) a!2))))
      (a!42 ((_ extract 23 16)
              (uninterp__hash64 (concat (select obj_at__key_set_p2 7) a!2))))
      (a!43 ((_ extract 31 24)
              (uninterp__hash64 (concat (select obj_at__key_set_p2 7) a!2))))
      (a!50 (concat #x00000000
                    (uninterp__hash64 (concat (select obj_at__key_get_p5 7)
                                              a!49)))))
(let ((a!6 (rem (tpot_bv2int a!3)
                (tpot_bv2int (concat (select obj_at__map0 23) a!5))))
      (a!51 (rem (+ 1 (rem (tpot_bv2int a!50) 2)) 2)))
(let ((a!7 (rem a!6 (tpot_bv2int (concat (select obj_at__map0 23) a!5))))
      (a!28 (rem (+ 1 a!6) (tpot_bv2int (concat (select obj_at__map0 23) a!5))))
      (a!52 (+ (- (+ (tpot_bv2int addr__map->items) (* 32 a!51))
                  (tpot_bv2int addr__map->items))
               7))
      (a!53 (+ (- (+ (tpot_bv2int addr__map->items) (* 32 a!51))
                  (tpot_bv2int addr__map->items))
               6))
      (a!54 (+ (- (+ (tpot_bv2int addr__map->items) (* 32 a!51))
                  (tpot_bv2int addr__map->items))
               5))
      (a!55 (+ (- (+ (tpot_bv2int addr__map->items) (* 32 a!51))
                  (tpot_bv2int addr__map->items))
               4))
      (a!56 (+ (- (+ (tpot_bv2int addr__map->items) (* 32 a!51))
                  (tpot_bv2int addr__map->items))
               3))
      (a!57 (+ (- (+ (tpot_bv2int addr__map->items) (* 32 a!51))
                  (tpot_bv2int addr__map->items))
               2))
      (a!58 (+ (- (+ (tpot_bv2int addr__map->items) (* 32 a!51))
                  (tpot_bv2int addr__map->items))
               1))
      (a!59 (+ (- (+ (tpot_bv2int addr__map->items) (* 32 a!51))
                  (tpot_bv2int addr__map->items))
               0)))
(let ((a!8 (+ 16
              (- (+ (tpot_bv2int addr__map->items) (* 32 a!7))
                 (tpot_bv2int addr__map->items))
              0))
      (a!9 (+ 16
              (- (+ (tpot_bv2int addr__map->items) (* 32 a!7))
                 (tpot_bv2int addr__map->items))
              7))
      (a!10 (+ 16
               (- (+ (tpot_bv2int addr__map->items) (* 32 a!7))
                  (tpot_bv2int addr__map->items))
               6))
      (a!11 (+ 16
               (- (+ (tpot_bv2int addr__map->items) (* 32 a!7))
                  (tpot_bv2int addr__map->items))
               5))
      (a!12 (+ 16
               (- (+ (tpot_bv2int addr__map->items) (* 32 a!7))
                  (tpot_bv2int addr__map->items))
               4))
      (a!13 (+ 16
               (- (+ (tpot_bv2int addr__map->items) (* 32 a!7))
                  (tpot_bv2int addr__map->items))
               3))
      (a!14 (+ 16
               (- (+ (tpot_bv2int addr__map->items) (* 32 a!7))
                  (tpot_bv2int addr__map->items))
               2))
      (a!15 (+ 16
               (- (+ (tpot_bv2int addr__map->items) (* 32 a!7))
                  (tpot_bv2int addr__map->items))
               1))
      (a!29 (+ (- (+ (tpot_bv2int addr__map->items) (* 32 a!28))
                  (tpot_bv2int addr__map->items))
               0))
      (a!30 (+ (- (+ (tpot_bv2int addr__map->items) (* 32 a!28))
                  (tpot_bv2int addr__map->items))
               1))
      (a!31 (+ (- (+ (tpot_bv2int addr__map->items) (* 32 a!28))
                  (tpot_bv2int addr__map->items))
               2))
      (a!33 (+ (- (+ (tpot_bv2int addr__map->items) (* 32 a!28))
                  (tpot_bv2int addr__map->items))
               3))
      (a!34 (+ (- (+ (tpot_bv2int addr__map->items) (* 32 a!28))
                  (tpot_bv2int addr__map->items))
               4))
      (a!35 (+ (- (+ (tpot_bv2int addr__map->items) (* 32 a!28))
                  (tpot_bv2int addr__map->items))
               5))
      (a!37 (+ (- (+ (tpot_bv2int addr__map->items) (* 32 a!28))
                  (tpot_bv2int addr__map->items))
               6))
      (a!38 (+ (- (+ (tpot_bv2int addr__map->items) (* 32 a!28))
                  (tpot_bv2int addr__map->items))
               7)))
(let ((a!16 (concat (select obj_at__map->items1 a!13)
                    (concat (select obj_at__map->items1 a!14)
                            (concat (select obj_at__map->items1 a!15)
                                    (select obj_at__map->items1 a!8))))))
(let ((a!17 (concat (select obj_at__map->items1 a!10)
                    (concat (select obj_at__map->items1 a!11)
                            (concat (select obj_at__map->items1 a!12) a!16)))))
(let ((a!18 ((_ extract 7 0)
              (bvadd #x0000000000000001
                     (concat (select obj_at__map->items1 a!9) a!17))))
      (a!19 ((_ extract 15 8)
              (bvadd #x0000000000000001
                     (concat (select obj_at__map->items1 a!9) a!17))))
      (a!20 ((_ extract 23 16)
              (bvadd #x0000000000000001
                     (concat (select obj_at__map->items1 a!9) a!17))))
      (a!21 ((_ extract 31 24)
              (bvadd #x0000000000000001
                     (concat (select obj_at__map->items1 a!9) a!17))))
      (a!23 ((_ extract 39 32)
              (bvadd #x0000000000000001
                     (concat (select obj_at__map->items1 a!9) a!17))))
      (a!24 ((_ extract 47 40)
              (bvadd #x0000000000000001
                     (concat (select obj_at__map->items1 a!9) a!17))))
      (a!25 ((_ extract 55 48)
              (bvadd #x0000000000000001
                     (concat (select obj_at__map->items1 a!9) a!17))))
      (a!26 ((_ extract 63 56)
              (bvadd #x0000000000000001
                     (concat (select obj_at__map->items1 a!9) a!17)))))
(let ((a!22 (store (store (store (store obj_at__map->items1 a!8 a!18) a!15 a!19)
                          a!14
                          a!20)
                   a!13
                   a!21)))
(let ((a!27 (store (store (store (store a!22 a!12 a!23) a!11 a!24) a!10 a!25)
                   a!9
                   a!26)))
(let ((a!32 (store (store (store a!27
                                 a!29
                                 ((_ extract 7 0) syt_fresh_bv__key_set_p.2))
                          a!30
                          ((_ extract 15 8) syt_fresh_bv__key_set_p.2))
                   a!31
                   ((_ extract 23 16) syt_fresh_bv__key_set_p.2))))
(let ((a!36 (store (store (store a!32
                                 a!33
                                 ((_ extract 31 24) syt_fresh_bv__key_set_p.2))
                          a!34
                          ((_ extract 39 32) syt_fresh_bv__key_set_p.2))
                   a!35
                   ((_ extract 47 40) syt_fresh_bv__key_set_p.2))))
(let ((a!40 (store (store (store a!36
                                 a!37
                                 ((_ extract 55 48) syt_fresh_bv__key_set_p.2))
                          a!38
                          ((_ extract 63 56) syt_fresh_bv__key_set_p.2))
                   (+ 24 a!29)
                   a!39)))
(let ((a!44 (store (store (store a!40 (+ 24 a!30) a!41) (+ 24 a!31) a!42)
                   (+ 24 a!33)
                   a!43)))
(let ((a!45 (store (store (store a!44
                                 (+ 8 a!29)
                                 ((_ extract 7 0) syt_fresh_bv__value.1))
                          (+ 8 a!30)
                          ((_ extract 15 8) syt_fresh_bv__value.1))
                   (+ 8 a!31)
                   ((_ extract 23 16) syt_fresh_bv__value.1))))
(let ((a!46 (store (store (store a!45
                                 (+ 8 a!33)
                                 ((_ extract 31 24) syt_fresh_bv__value.1))
                          (+ 8 a!34)
                          ((_ extract 39 32) syt_fresh_bv__value.1))
                   (+ 8 a!35)
                   ((_ extract 47 40) syt_fresh_bv__value.1))))
(let ((a!47 (store (store a!46
                          (+ 8 a!37)
                          ((_ extract 55 48) syt_fresh_bv__value.1))
                   (+ 8 a!38)
                   ((_ extract 63 56) syt_fresh_bv__value.1))))
(let ((a!60 (concat (select a!47 a!56)
                    (concat (select a!47 a!57)
                            (concat (select a!47 a!58) (select a!47 a!59))))))
(let ((a!61 (concat (select a!47 a!53)
                    (concat (select a!47 a!54) (concat (select a!47 a!55) a!60)))))
  (not (= (concat (select a!47 a!52) a!61) addr__key_set_p)))))))))))))))))))))))

(assert (let ((a!1 (concat (select fzone_at__&key_i_inst_13 3)
                   (concat (select fzone_at__&key_i_inst_13 2)
                           (concat (select fzone_at__&key_i_inst_13 1)
                                   (select fzone_at__&key_i_inst_13 0)))))
      (a!3 (concat (select obj_at__key_get_p5 3)
                   (concat (select obj_at__key_get_p5 2)
                           (concat (select obj_at__key_get_p5 1)
                                   (select obj_at__key_get_p5 0))))))
(let ((a!2 (concat (select fzone_at__&key_i_inst_13 6)
                   (concat (select fzone_at__&key_i_inst_13 5)
                           (concat (select fzone_at__&key_i_inst_13 4) a!1))))
      (a!4 (concat (select obj_at__key_get_p5 6)
                   (concat (select obj_at__key_get_p5 5)
                           (concat (select obj_at__key_get_p5 4) a!3)))))
  (= (concat (select fzone_at__&key_i_inst_13 7) a!2)
     (concat (select obj_at__key_get_p5 7) a!4)))))
(assert (let ((a!1 (exists ((is_uniq_base Int))
             (let ((a!1 (concat (select obj_at__key_get_p5 3)
                                (concat (select obj_at__key_get_p5 2)
                                        (concat (select obj_at__key_get_p5 1)
                                                (select obj_at__key_get_p5 0)))))
                   (a!4 (concat (select obj_at__map0 19)
                                (concat (select obj_at__map0 18)
                                        (concat (select obj_at__map0 17)
                                                (select obj_at__map0 16))))))
             (let ((a!2 (concat (select obj_at__key_get_p5 6)
                                (concat (select obj_at__key_get_p5 5)
                                        (concat (select obj_at__key_get_p5 4)
                                                a!1))))
                   (a!5 (concat (select obj_at__map0 22)
                                (concat (select obj_at__map0 21)
                                        (concat (select obj_at__map0 20) a!4)))))
             (let ((a!3 (concat #x00000000
                                (uninterp__hash64 (concat (select obj_at__key_get_p5
                                                                  7)
                                                          a!2)))))
             (let ((a!6 (rem (tpot_bv2int a!3)
                             (tpot_bv2int (concat (select obj_at__map0 23) a!5)))))
             (let ((a!7 (rem (+ 1 a!6)
                             (tpot_bv2int (concat (select obj_at__map0 23) a!5)))))
             (let ((a!8 (+ (- (+ (tpot_bv2int addr__map->items) (* 32 a!7))
                              (tpot_bv2int addr__map->items))
                           7))
                   (a!9 (+ (- (+ (tpot_bv2int addr__map->items) (* 32 a!7))
                              (tpot_bv2int addr__map->items))
                           6))
                   (a!10 (+ (- (+ (tpot_bv2int addr__map->items) (* 32 a!7))
                               (tpot_bv2int addr__map->items))
                            5))
                   (a!11 (+ (- (+ (tpot_bv2int addr__map->items) (* 32 a!7))
                               (tpot_bv2int addr__map->items))
                            4))
                   (a!12 (+ (- (+ (tpot_bv2int addr__map->items) (* 32 a!7))
                               (tpot_bv2int addr__map->items))
                            3))
                   (a!13 (+ (- (+ (tpot_bv2int addr__map->items) (* 32 a!7))
                               (tpot_bv2int addr__map->items))
                            2))
                   (a!14 (+ (- (+ (tpot_bv2int addr__map->items) (* 32 a!7))
                               (tpot_bv2int addr__map->items))
                            1))
                   (a!15 (+ (- (+ (tpot_bv2int addr__map->items) (* 32 a!7))
                               (tpot_bv2int addr__map->items))
                            0)))
             (let ((a!16 (concat (select obj_at__map->items1 a!12)
                                 (concat (select obj_at__map->items1 a!13)
                                         (concat (select obj_at__map->items1
                                                         a!14)
                                                 (select obj_at__map->items1
                                                         a!15))))))
             (let ((a!17 (concat (select obj_at__map->items1 a!9)
                                 (concat (select obj_at__map->items1 a!10)
                                         (concat (select obj_at__map->items1
                                                         a!11)
                                                 a!16)))))
             (let ((a!18 (<= is_uniq_base
                             (tpot_bv2int (concat (select obj_at__map->items1
                                                          a!8)
                                                  a!17))))
                   (a!19 (- (tpot_bv2int (concat (select obj_at__map->items1
                                                         a!8)
                                                 a!17))
                            is_uniq_base)))
               (and (<= 8 (is_unique is_uniq_base))
                    a!18
                    (<= a!19 (- (is_unique is_uniq_base) 8)))))))))))))))
  (not a!1)))
(check-sat)
; end Z3 query